<number of tasks>
58

<cycle time>
62

<task times>
1 10
2 53
3 41
4 36
5 35
6 17
7 34
8 23
9 14
10 52
11 33
12 34
13 12
14 52
15 12
16 33
17 44
18 7
19 15
20 13
21 29
22 37
23 43
24 23
25 24
26 9
27 16
28 12
29 26
30 22
31 51
32 47
33 34
34 23
35 12
36 52
37 12
38 33
39 44
40 7
41 15
42 13
43 29
44 37
45 43
46 23
47 24
48 9
49 16
50 12
51 26
52 12
53 52
54 12
55 33
56 44
57 7
58 15

<precedence relations>
1,9
2,25
3,21
3,22
4,10
5,36
6,23
6,24
7,43
8,44
9,11
11,13
11,14
11,15
12,17
13,17
14,17
15,17
16,18
17,20
18,19
19,23
20,21
20,25
21,26
21,44
22,27
23,31
24,31
25,38
26,29
27,30
28,32
28,33
29,31
30,34
31,36
32,45
33,35
34,36
35,43
36,37
36,38
37,39
37,40
37,41
38,52
39,43
40,43
41,42
42,43
43,45
44,45
45,46
45,48
45,49
46,47
46,50
47,51
48,55
49,58
50,58
51,52
52,53
53,54
54,55
54,56
55,57
56,57
57,58

<setup times forward>
1,2:3
1,3:5
1,4:8
1,5:18
1,6:5
1,7:6
1,8:8
1,9:11
1,12:11
1,16:15
1,18:3
1,19:11
1,22:17
1,23:2
1,24:17
1,27:9
1,28:11
1,30:6
1,32:11
1,33:9
1,34:17
1,35:9
2,1:3
2,3:2
2,4:5
2,5:15
2,6:2
2,7:3
2,8:5
2,9:8
2,10:3
2,11:3
2,12:8
2,13:3
2,14:9
2,15:3
2,16:12
2,17:5
2,19:8
2,20:5
2,21:12
2,22:14
2,23:1
2,24:14
2,25:3
2,26:1
2,27:6
2,28:8
2,29:15
2,30:3
2,31:3
2,32:8
2,33:6
2,34:14
2,35:6
2,36:7
2,37:3
2,39:1
2,40:3
2,41:3
2,42:1
2,44:14
2,45:12
2,47:7
2,48:8
2,51:7
3,1:5
3,2:2
3,4:3
3,5:13
3,7:1
3,8:3
3,9:6
3,10:5
3,11:1
3,12:6
3,13:1
3,14:7
3,15:1
3,16:10
3,17:3
3,18:2
3,19:6
3,20:3
3,21:10
3,22:12
3,23:3
3,24:12
3,25:1
3,28:6
3,32:6
3,33:4
3,35:4
4,1:8
4,2:5
4,3:3
4,5:10
4,6:3
4,7:2
4,9:3
4,10:8
4,11:2
4,12:3
4,13:2
4,14:4
4,15:2
4,16:7
4,18:5
4,19:3
4,21:7
4,22:9
4,23:6
4,24:9
4,25:2
4,26:6
4,27:1
4,28:3
4,29:10
4,30:2
4,31:8
4,32:3
4,33:1
4,34:9
4,35:1
4,36:2
4,37:2
4,38:5
4,39:6
4,40:2
4,41:2
4,42:6
4,43:5
4,44:9
4,45:7
4,46:5
4,47:2
4,48:3
4,49:5
4,50:5
4,51:2
4,52:2
4,53:3
4,54:8
4,55:11
4,56:8
4,57:11
4,58:11
5,1:18
5,2:15
5,3:13
5,4:10
5,6:13
5,7:12
5,8:10
5,9:7
5,10:18
5,11:12
5,12:7
5,13:12
5,14:6
5,15:12
5,16:3
5,17:10
5,18:15
5,19:7
5,20:10
5,21:3
5,22:1
5,23:16
5,24:1
5,25:12
5,26:16
5,27:9
5,28:7
5,30:12
5,31:18
5,32:7
5,33:9
5,34:1
5,35:9
5,36:8
5,44:1
6,1:5
6,2:2
6,4:3
6,5:13
6,7:1
6,8:3
6,9:6
6,10:5
6,11:1
6,12:6
6,13:1
6,14:7
6,15:1
6,16:10
6,17:3
6,18:2
6,19:6
6,20:3
6,21:10
6,22:12
6,23:3
6,24:12
6,25:1
6,26:3
6,27:4
6,28:6
6,29:13
6,30:1
6,32:6
6,33:4
6,34:12
6,35:4
6,44:12
7,1:6
7,2:3
7,3:1
7,4:2
7,5:12
7,6:1
7,8:2
7,9:5
7,10:6
7,12:5
7,14:6
7,16:9
7,17:2
7,18:3
7,19:5
7,20:2
7,21:9
7,22:11
7,23:4
7,24:11
7,26:4
7,27:3
7,28:5
7,29:12
7,31:6
7,32:5
7,33:3
7,34:11
7,35:3
7,36:4
7,38:3
7,39:4
7,42:4
7,43:3
7,44:11
8,1:8
8,2:5
8,3:3
8,5:10
8,6:3
8,7:2
8,9:3
8,10:8
8,11:2
8,12:3
8,13:2
8,14:4
8,15:2
8,16:7
8,18:5
8,19:3
8,21:7
8,22:9
8,23:6
8,24:9
8,25:2
8,26:6
8,27:1
8,28:3
8,29:10
8,30:2
8,31:8
8,32:3
8,33:1
8,34:9
8,35:1
8,36:2
8,37:2
8,38:5
8,39:6
8,40:2
8,41:2
8,42:6
8,43:5
8,44:9
9,2:8
9,3:6
9,4:3
9,5:7
9,6:6
9,7:5
9,8:3
9,10:11
9,11:5
9,16:4
9,18:8
9,22:6
9,23:9
9,24:6
9,27:2
9,30:5
9,33:2
9,34:6
9,35:2
10,2:3
10,3:5
10,5:18
10,6:5
10,7:6
10,8:8
10,9:11
10,11:6
10,12:11
10,13:6
10,14:12
10,15:6
10,16:15
10,17:8
10,18:3
10,19:11
10,20:8
10,21:15
10,22:17
10,23:2
10,24:17
10,25:6
10,26:2
10,27:9
10,28:11
10,29:18
10,30:6
10,32:11
10,33:9
10,34:17
10,35:9
10,36:10
10,37:6
10,38:3
10,39:2
10,40:6
10,41:6
10,42:2
10,43:3
10,44:17
10,45:15
10,46:3
10,47:10
10,48:11
10,49:3
10,50:3
10,51:10
10,52:10
10,53:11
10,54:16
10,55:19
10,56:16
10,57:19
10,58:19
11,2:3
11,3:1
11,4:2
11,5:12
11,6:1
11,8:2
11,10:6
11,12:5
11,14:6
11,16:9
11,18:3
11,19:5
11,22:11
11,23:4
11,24:11
11,27:3
11,28:5
11,32:5
11,33:3
11,34:11
11,35:3
12,1:11
12,2:8
12,3:6
12,4:3
12,5:7
12,6:6
12,7:5
12,8:3
12,10:11
12,11:5
12,13:5
12,14:1
12,15:5
12,16:4
12,17:3
12,18:8
12,22:6
12,23:9
12,24:6
12,27:2
12,30:5
12,33:2
12,34:6
12,35:2
13,2:3
13,3:1
13,4:2
13,5:12
13,6:1
13,8:2
13,10:6
13,12:5
13,14:6
13,16:9
13,17:2
13,18:3
13,19:5
13,22:11
13,23:4
13,24:11
13,27:3
13,28:5
13,32:5
13,33:3
13,34:11
13,35:3
14,2:9
14,3:7
14,4:4
14,5:6
14,6:7
14,7:6
14,8:4
14,10:12
14,12:1
14,13:6
14,15:6
14,16:3
14,17:4
14,18:9
14,19:1
14,22:5
14,23:10
14,24:5
14,27:3
14,28:1
14,30:6
14,32:1
14,33:3
14,34:5
14,35:3
15,2:3
15,3:1
15,4:2
15,5:12
15,6:1
15,8:2
15,10:6
15,12:5
15,14:6
15,16:9
15,17:2
15,18:3
15,19:5
15,22:11
15,23:4
15,24:11
15,27:3
15,28:5
15,32:5
15,33:3
15,34:11
15,35:3
16,1:15
16,2:12
16,3:10
16,4:7
16,5:3
16,6:10
16,7:9
16,8:7
16,9:4
16,10:15
16,11:9
16,12:4
16,13:9
16,14:3
16,15:9
16,17:7
16,18:12
16,20:7
16,22:2
16,24:2
16,25:9
16,26:13
16,27:6
16,28:4
16,29:3
16,30:9
16,32:4
16,33:6
16,34:2
16,35:6
16,44:2
17,2:5
17,3:3
17,5:10
17,6:3
17,7:2
17,10:8
17,16:7
17,18:5
17,19:3
17,22:9
17,23:6
17,24:9
17,27:1
17,28:3
17,30:2
17,32:3
17,33:1
17,34:9
17,35:1
18,1:3
18,3:2
18,4:5
18,5:15
18,6:2
18,7:3
18,8:5
18,9:8
18,10:3
18,11:3
18,12:8
18,13:3
18,14:9
18,15:3
18,17:5
18,19:8
18,20:5
18,21:12
18,22:14
18,24:14
18,25:3
18,26:1
18,27:6
18,28:8
18,29:15
18,30:3
18,32:8
18,33:6
18,34:14
18,35:6
18,44:14
19,1:11
19,2:8
19,3:6
19,4:3
19,5:7
19,6:6
19,7:5
19,8:3
19,10:11
19,11:5
19,13:5
19,14:1
19,15:5
19,17:3
19,20:3
19,21:4
19,22:6
19,23:9
19,24:6
19,25:5
19,26:9
19,27:2
19,29:7
19,30:5
19,33:2
19,34:6
19,35:2
19,44:6
20,2:5
20,3:3
20,5:10
20,6:3
20,7:2
20,10:8
20,16:7
20,18:5
20,19:3
20,21:7
20,22:9
20,23:6
20,24:9
20,25:2
20,27:1
20,28:3
20,30:2
20,32:3
20,33:1
20,34:9
20,35:1
21,2:12
21,4:7
21,5:3
21,6:10
21,7:9
21,8:7
21,10:15
21,18:12
21,19:4
21,22:2
21,23:13
21,24:2
21,25:9
21,26:13
21,27:6
21,28:4
21,30:9
21,32:4
21,33:6
21,34:2
21,35:6
21,44:2
22,1:17
22,2:14
22,4:9
22,5:1
22,6:12
22,7:11
22,8:9
22,9:6
22,10:17
22,11:11
22,12:6
22,13:11
22,14:5
22,15:11
22,16:2
22,17:9
22,18:14
22,19:6
22,20:9
22,21:2
22,23:15
22,25:11
22,26:15
22,27:8
22,28:6
22,29:1
22,31:17
22,32:6
22,33:8
22,35:8
23,1:2
23,2:1
23,3:3
23,4:6
23,5:16
23,7:4
23,8:6
23,9:9
23,10:2
23,11:4
23,12:9
23,13:4
23,14:10
23,15:4
23,17:6
23,20:6
23,21:13
23,22:15
23,24:15
23,25:4
23,27:7
23,28:9
23,29:16
23,30:4
23,31:2
23,32:9
23,33:7
23,34:15
23,35:7
23,44:15
24,1:17
24,2:14
24,3:12
24,4:9
24,5:1
24,7:11
24,8:9
24,9:6
24,10:17
24,11:11
24,12:6
24,13:11
24,14:5
24,15:11
24,16:2
24,17:9
24,18:14
24,19:6
24,20:9
24,21:2
24,23:15
24,25:11
24,26:15
24,27:8
24,28:6
24,29:1
24,30:11
24,31:17
24,32:6
24,33:8
24,35:8
25,3:1
25,4:2
25,5:12
25,6:1
25,8:2
25,10:6
25,16:9
25,18:3
25,19:5
25,21:9
25,22:11
25,23:4
25,24:11
25,26:4
25,27:3
25,28:5
25,29:12
25,31:6
25,32:5
25,33:3
25,34:11
25,35:3
25,36:4
25,38:3
25,39:4
25,42:4
25,43:3
25,44:11
25,45:9
25,46:3
25,47:4
25,48:5
25,49:3
25,50:3
25,51:4
26,2:1
26,4:6
26,5:16
26,6:3
26,7:4
26,8:6
26,10:2
26,16:13
26,18:1
26,19:9
26,22:15
26,24:15
26,25:4
26,27:7
26,28:9
26,29:16
26,30:4
26,32:9
26,33:7
26,34:15
26,35:7
26,44:15
27,1:9
27,2:6
27,4:1
27,5:9
27,6:4
27,7:3
27,8:1
27,9:2
27,10:9
27,11:3
27,12:2
27,13:3
27,14:3
27,15:3
27,16:6
27,17:1
27,18:6
27,19:2
27,20:1
27,21:6
27,23:7
27,24:8
27,25:3
27,26:7
27,28:2
27,29:9
27,30:3
27,31:9
27,32:2
27,44:8
28,1:11
28,2:8
28,3:6
28,4:3
28,5:7
28,6:6
28,7:5
28,8:3
28,10:11
28,11:5
28,13:5
28,14:1
28,15:5
28,16:4
28,17:3
28,18:8
28,20:3
28,21:4
28,22:6
28,23:9
28,24:6
28,25:5
28,26:9
28,27:2
28,29:7
28,30:5
28,31:11
28,33:2
28,34:6
28,36:1
28,37:5
28,38:8
28,39:9
28,40:5
28,41:5
28,42:9
28,44:6
29,2:15
29,4:10
29,6:13
29,7:12
29,8:10
29,10:18
29,16:3
29,18:15
29,19:7
29,22:1
29,23:16
29,24:1
29,25:12
29,27:9
29,28:7
29,30:12
29,31:18
29,32:7
29,33:9
29,34:1
29,35:9
29,44:1
30,1:6
30,2:3
30,4:2
30,5:12
30,6:1
30,8:2
30,9:5
30,10:6
30,12:5
30,14:6
30,16:9
30,17:2
30,18:3
30,19:5
30,20:2
30,21:9
30,23:4
30,24:11
30,26:4
30,28:5
30,29:12
30,31:6
30,32:5
30,33:3
30,34:11
30,35:3
30,44:11
31,2:3
31,4:8
31,5:18
31,7:6
31,8:8
31,22:17
31,25:6
31,27:9
31,28:11
31,30:6
31,32:11
31,33:9
31,34:17
31,35:9
31,36:10
31,44:17
32,1:11
32,2:8
32,3:6
32,4:3
32,5:7
32,6:6
32,7:5
32,8:3
32,10:11
32,11:5
32,13:5
32,14:1
32,15:5
32,16:4
32,17:3
32,18:8
32,20:3
32,21:4
32,22:6
32,23:9
32,24:6
32,25:5
32,26:9
32,27:2
32,29:7
32,30:5
32,31:11
32,33:2
32,34:6
32,35:2
32,36:1
32,37:5
32,38:8
32,39:9
32,40:5
32,41:5
32,42:9
32,43:8
32,44:6
32,45:4
33,1:9
33,2:6
33,3:4
33,4:1
33,5:9
33,6:4
33,7:3
33,8:1
33,9:2
33,10:9
33,11:3
33,12:2
33,13:3
33,14:3
33,15:3
33,16:6
33,17:1
33,18:6
33,19:2
33,20:1
33,21:6
33,22:8
33,23:7
33,24:8
33,25:3
33,26:7
33,29:9
33,30:3
33,31:9
33,32:2
33,34:8
33,36:1
33,37:3
33,38:6
33,39:7
33,40:3
33,41:3
33,42:7
33,44:8
34,1:17
34,2:14
34,4:9
34,5:1
34,6:12
34,7:11
34,8:9
34,9:6
34,10:17
34,11:11
34,12:6
34,13:11
34,14:5
34,15:11
34,16:2
34,17:9
34,18:14
34,19:6
34,20:9
34,21:2
34,23:15
34,25:11
34,26:15
34,28:6
34,29:1
34,31:17
34,32:6
34,33:8
34,35:8
34,36:7
35,1:9
35,2:6
35,3:4
35,4:1
35,5:9
35,6:4
35,7:3
35,8:1
35,9:2
35,10:9
35,11:3
35,12:2
35,13:3
35,14:3
35,15:3
35,16:6
35,17:1
35,18:6
35,19:2
35,20:1
35,21:6
35,22:8
35,23:7
35,24:8
35,25:3
35,26:7
35,29:9
35,30:3
35,31:9
35,32:2
35,34:8
35,36:1
35,37:3
35,38:6
35,39:7
35,40:3
35,41:3
35,42:7
35,43:6
35,44:8
36,2:7
36,4:2
36,7:4
36,8:2
36,10:10
36,25:4
36,28:1
36,32:1
36,33:1
36,35:1
36,37:4
36,38:7
36,44:7
37,2:3
37,4:2
37,8:2
37,10:6
37,28:5
37,32:5
37,33:3
37,35:3
37,38:3
37,39:4
37,44:11
38,4:5
38,7:3
38,8:5
38,10:3
38,28:8
38,32:8
38,33:6
38,35:6
38,37:3
38,39:1
38,40:3
38,41:3
38,42:1
38,44:14
38,45:12
38,47:7
38,48:8
38,51:7
38,52:7
39,2:1
39,4:6
39,7:4
39,8:6
39,10:2
39,25:4
39,28:9
39,32:9
39,33:7
39,35:7
39,38:1
39,40:4
39,41:4
39,43:1
39,44:15
40,2:3
40,4:2
40,8:2
40,10:6
40,28:5
40,32:5
40,33:3
40,35:3
40,38:3
40,39:4
40,42:4
40,43:3
40,44:11
41,2:3
41,4:2
41,8:2
41,10:6
41,28:5
41,32:5
41,33:3
41,35:3
41,38:3
41,39:4
41,42:4
41,44:11
42,2:1
42,4:6
42,7:4
42,8:6
42,10:2
42,25:4
42,28:9
42,32:9
42,33:7
42,35:7
42,38:1
42,40:4
42,43:1
42,44:15
43,4:5
43,8:5
43,10:3
43,25:3
43,32:8
43,44:14
43,45:12
44,2:14
44,4:9
44,5:1
44,6:12
44,7:11
44,10:17
44,16:2
44,18:14
44,19:6
44,23:15
44,25:11
44,26:15
44,27:8
44,28:6
44,29:1
44,30:11
44,31:17
44,32:6
44,33:8
44,35:8
44,36:7
44,37:11
44,38:14
44,39:15
44,40:11
44,41:11
44,42:15
44,43:14
44,45:2
45,2:12
45,4:7
45,10:15
45,25:9
45,38:12
45,46:12
45,48:4
45,49:12
46,4:5
46,10:3
46,25:3
46,47:7
46,48:8
47,2:7
47,4:2
47,10:10
47,25:4
47,38:7
47,48:1
47,49:7
47,50:7
48,2:8
48,4:3
48,10:11
48,25:5
48,38:8
48,46:8
48,47:1
48,49:8
48,50:8
48,51:1
48,52:1
48,54:5
48,55:8
48,56:5
49,4:5
49,10:3
49,25:3
49,47:7
49,48:8
49,51:7
49,52:7
49,53:8
49,54:13
49,55:16
49,56:13
49,57:16
49,58:16
50,4:5
50,10:3
50,25:3
50,47:7
50,48:8
50,51:7
50,52:7
50,53:8
50,54:13
50,55:16
50,56:13
50,57:16
50,58:16
51,2:7
51,4:2
51,10:10
51,25:4
51,38:7
51,48:1
51,49:7
51,50:7
52,4:2
52,10:10
52,48:1
52,49:7
52,50:7
52,53:1
53,4:3
53,10:11
53,49:8
53,50:8
53,54:5
54,4:8
54,10:16
54,48:5
54,49:13
54,50:13
54,55:3
55,4:11
55,10:19
55,49:16
55,50:16
55,56:3
56,4:8
56,10:16
56,48:5
56,49:13
56,50:13
56,55:3
56,57:3
57,4:11
57,10:19
57,49:16
57,50:16
58,4:11
58,10:19

<setup times backward>
1,2:3
1,3:5
1,4:8
1,5:18
1,6:5
1,7:6
1,8:8
1,12:11
1,16:15
1,18:3
1,19:11
1,22:17
1,23:2
1,24:17
1,27:9
1,28:11
1,30:6
1,32:11
1,33:9
1,34:17
1,35:9
2,3:2
2,4:5
2,5:15
2,6:2
2,7:3
2,8:5
2,9:8
2,11:3
2,12:8
2,13:3
2,14:9
2,15:3
2,16:12
2,17:5
2,19:8
2,20:5
2,21:12
2,22:14
2,24:14
2,27:6
2,28:8
2,29:15
2,30:3
2,32:8
2,33:6
2,34:14
2,35:6
2,36:7
2,37:3
2,40:3
2,41:3
2,44:14
2,45:12
2,47:7
2,48:8
2,51:7
3,4:3
3,5:13
3,7:1
3,8:3
3,9:6
3,11:1
3,12:6
3,13:1
3,14:7
3,15:1
3,16:10
3,17:3
3,19:6
3,20:3
3,24:12
3,25:1
3,28:6
3,32:6
3,33:4
3,35:4
4,5:10
4,9:3
4,12:3
4,14:4
4,16:7
4,19:3
4,21:7
4,22:9
4,24:9
4,27:1
4,28:3
4,29:10
4,32:3
4,33:1
4,34:9
4,35:1
4,36:2
4,44:9
4,45:7
4,47:2
4,48:3
4,51:2
4,52:2
4,53:3
4,54:8
4,55:11
4,56:8
4,57:11
4,58:11
6,4:3
6,5:13
6,7:1
6,8:3
6,9:6
6,11:1
6,12:6
6,13:1
6,14:7
6,15:1
6,16:10
6,17:3
6,19:6
6,20:3
6,21:10
6,22:12
6,25:1
6,27:4
6,28:6
6,29:13
6,30:1
6,32:6
6,33:4
6,34:12
6,35:4
6,44:12
7,4:2
7,5:12
7,8:2
7,9:5
7,12:5
7,14:6
7,16:9
7,17:2
7,19:5
7,20:2
7,21:9
7,22:11
7,24:11
7,27:3
7,28:5
7,29:12
7,32:5
7,33:3
7,34:11
7,35:3
7,36:4
7,44:11
8,5:10
8,9:3
8,12:3
8,14:4
8,16:7
8,19:3
8,21:7
8,22:9
8,24:9
8,27:1
8,28:3
8,29:10
8,32:3
8,33:1
8,34:9
8,35:1
8,36:2
9,5:7
9,16:4
9,22:6
9,24:6
9,34:6
10,2:3
10,3:5
10,4:8
10,5:18
10,6:5
10,7:6
10,8:8
10,9:11
10,11:6
10,12:11
10,13:6
10,14:12
10,15:6
10,16:15
10,17:8
10,18:3
10,19:11
10,20:8
10,21:15
10,22:17
10,23:2
10,24:17
10,25:6
10,26:2
10,27:9
10,28:11
10,29:18
10,30:6
10,32:11
10,33:9
10,34:17
10,35:9
10,36:10
10,37:6
10,38:3
10,39:2
10,40:6
10,41:6
10,42:2
10,43:3
10,44:17
10,45:15
10,46:3
10,47:10
10,48:11
10,49:3
10,50:3
10,51:10
10,52:10
10,53:11
10,54:16
10,55:19
10,56:16
10,57:19
10,58:19
11,4:2
11,5:12
11,8:2
11,9:5
11,12:5
11,16:9
11,19:5
11,22:11
11,24:11
11,27:3
11,28:5
11,32:5
11,33:3
11,34:11
11,35:3
12,5:7
12,14:1
12,16:4
12,22:6
12,24:6
12,34:6
13,4:2
13,5:12
13,8:2
13,9:5
13,12:5
13,14:6
13,16:9
13,19:5
13,22:11
13,24:11
13,27:3
13,28:5
13,32:5
13,33:3
13,34:11
13,35:3
14,5:6
14,16:3
14,22:5
14,24:5
14,34:5
15,4:2
15,5:12
15,8:2
15,9:5
15,12:5
15,14:6
15,16:9
15,19:5
15,22:11
15,24:11
15,27:3
15,28:5
15,32:5
15,33:3
15,34:11
15,35:3
16,5:3
16,22:2
16,24:2
16,29:3
16,34:2
16,44:2
17,5:10
17,9:3
17,12:3
17,14:4
17,16:7
17,19:3
17,22:9
17,24:9
17,27:1
17,28:3
17,32:3
17,33:1
17,34:9
17,35:1
18,3:2
18,4:5
18,5:15
18,6:2
18,7:3
18,8:5
18,9:8
18,11:3
18,12:8
18,13:3
18,14:9
18,15:3
18,16:12
18,17:5
18,20:5
18,21:12
18,22:14
18,24:14
18,25:3
18,27:6
18,28:8
18,29:15
18,30:3
18,32:8
18,33:6
18,34:14
18,35:6
18,44:14
19,5:7
19,14:1
19,16:4
19,21:4
19,22:6
19,24:6
19,29:7
19,34:6
19,44:6
20,5:10
20,9:3
20,12:3
20,14:4
20,16:7
20,19:3
20,22:9
20,24:9
20,27:1
20,28:3
20,32:3
20,33:1
20,34:9
20,35:1
21,5:3
21,22:2
21,24:2
21,34:2
22,5:1
22,29:1
23,2:1
23,3:3
23,4:6
23,5:16
23,6:3
23,7:4
23,8:6
23,9:9
23,11:4
23,12:9
23,13:4
23,14:10
23,15:4
23,16:13
23,17:6
23,18:1
23,19:9
23,20:6
23,21:13
23,22:15
23,24:15
23,25:4
23,27:7
23,28:9
23,29:16
23,30:4
23,32:9
23,33:7
23,34:15
23,35:7
23,44:15
24,5:1
24,29:1
25,4:2
25,5:12
25,8:2
25,9:5
25,12:5
25,14:6
25,16:9
25,17:2
25,19:5
25,20:2
25,21:9
25,22:11
25,24:11
25,27:3
25,28:5
25,29:12
25,32:5
25,33:3
25,34:11
25,35:3
25,36:4
25,44:11
25,45:9
25,47:4
25,48:5
25,51:4
26,2:1
26,3:3
26,4:6
26,5:16
26,6:3
26,7:4
26,8:6
26,9:9
26,11:4
26,12:9
26,13:4
26,14:10
26,15:4
26,16:13
26,17:6
26,18:1
26,19:9
26,20:6
26,21:13
26,22:15
26,24:15
26,25:4
26,27:7
26,28:9
26,30:4
26,32:9
26,33:7
26,34:15
26,35:7
26,44:15
27,5:9
27,9:2
27,12:2
27,14:3
27,16:6
27,19:2
27,21:6
27,22:8
27,24:8
27,28:2
27,29:9
27,32:2
27,44:8
28,5:7
28,14:1
28,16:4
28,21:4
28,22:6
28,24:6
28,29:7
28,34:6
28,44:6
30,4:2
30,5:12
30,8:2
30,9:5
30,12:5
30,14:6
30,16:9
30,17:2
30,19:5
30,20:2
30,21:9
30,22:11
30,24:11
30,27:3
30,28:5
30,29:12
30,32:5
30,33:3
30,35:3
30,44:11
31,2:3
31,3:5
31,4:8
31,5:18
31,6:5
31,7:6
31,8:8
31,9:11
31,11:6
31,12:11
31,13:6
31,14:12
31,15:6
31,16:15
31,17:8
31,18:3
31,19:11
31,20:8
31,21:15
31,22:17
31,23:2
31,24:17
31,25:6
31,26:2
31,27:9
31,28:11
31,29:18
31,30:6
31,32:11
31,33:9
31,34:17
31,35:9
31,44:17
32,5:7
32,14:1
32,16:4
32,21:4
32,22:6
32,24:6
32,29:7
32,34:6
32,44:6
33,5:9
33,9:2
33,12:2
33,14:3
33,16:6
33,19:2
33,21:6
33,22:8
33,24:8
33,28:2
33,29:9
33,32:2
33,34:8
33,36:1
33,44:8
34,5:1
34,29:1
35,5:9
35,9:2
35,12:2
35,14:3
35,16:6
35,19:2
35,21:6
35,22:8
35,24:8
35,28:2
35,29:9
35,32:2
35,34:8
35,36:1
35,44:8
36,5:8
36,9:1
36,12:1
36,14:2
36,16:5
36,19:1
36,21:5
36,22:7
36,24:7
36,28:1
36,29:8
36,32:1
36,34:7
36,44:7
37,4:2
37,5:12
37,8:2
37,9:5
37,12:5
37,14:6
37,16:9
37,17:2
37,19:5
37,20:2
37,21:9
37,22:11
37,24:11
37,27:3
37,28:5
37,29:12
37,32:5
37,33:3
37,34:11
37,35:3
37,36:4
37,44:11
38,3:2
38,4:5
38,5:15
38,6:2
38,7:3
38,8:5
38,9:8
38,11:3
38,12:8
38,13:3
38,14:9
38,15:3
38,16:12
38,17:5
38,19:8
38,20:5
38,21:12
38,22:14
38,24:14
38,25:3
38,27:6
38,28:8
38,29:15
38,30:3
38,32:8
38,33:6
38,34:14
38,35:6
38,36:7
38,37:3
38,40:3
38,41:3
38,44:14
38,45:12
38,47:7
38,48:8
38,51:7
39,2:1
39,3:3
39,4:6
39,5:16
39,6:3
39,7:4
39,8:6
39,9:9
39,11:4
39,12:9
39,13:4
39,14:10
39,15:4
39,16:13
39,17:6
39,18:1
39,19:9
39,20:6
39,21:13
39,22:15
39,24:15
39,25:4
39,27:7
39,28:9
39,29:16
39,30:4
39,32:9
39,33:7
39,34:15
39,35:7
39,36:8
39,37:4
39,38:1
39,40:4
39,41:4
39,44:15
40,4:2
40,5:12
40,8:2
40,9:5
40,12:5
40,14:6
40,16:9
40,17:2
40,19:5
40,20:2
40,21:9
40,22:11
40,24:11
40,27:3
40,28:5
40,29:12
40,32:5
40,33:3
40,34:11
40,35:3
40,36:4
40,44:11
41,4:2
41,5:12
41,8:2
41,9:5
41,12:5
41,14:6
41,16:9
41,17:2
41,19:5
41,20:2
41,21:9
41,22:11
41,24:11
41,27:3
41,28:5
41,29:12
41,32:5
41,33:3
41,34:11
41,35:3
41,36:4
41,44:11
42,2:1
42,3:3
42,4:6
42,5:16
42,6:3
42,7:4
42,8:6
42,9:9
42,11:4
42,12:9
42,13:4
42,14:10
42,15:4
42,16:13
42,17:6
42,18:1
42,19:9
42,20:6
42,21:13
42,22:15
42,24:15
42,25:4
42,27:7
42,28:9
42,29:16
42,30:4
42,32:9
42,33:7
42,34:15
42,35:7
42,36:8
42,37:4
42,38:1
42,40:4
42,41:4
42,44:15
43,3:2
43,4:5
43,5:15
43,6:2
43,7:3
43,8:5
43,9:8
43,11:3
43,12:8
43,13:3
43,14:9
43,15:3
43,16:12
43,17:5
43,19:8
43,20:5
43,21:12
43,22:14
43,24:14
43,25:3
43,27:6
43,28:8
43,29:15
43,30:3
43,32:8
43,33:6
43,34:14
43,35:6
43,36:7
43,37:3
43,40:3
43,41:3
43,44:14
44,5:1
44,29:1
45,5:3
45,22:2
45,24:2
45,29:3
45,34:2
45,44:2
46,3:2
46,4:5
46,5:15
46,6:2
46,7:3
46,8:5
46,9:8
46,11:3
46,12:8
46,13:3
46,14:9
46,15:3
46,16:12
46,17:5
46,19:8
46,20:5
46,21:12
46,22:14
46,24:14
46,25:3
46,27:6
46,28:8
46,29:15
46,30:3
46,32:8
46,33:6
46,34:14
46,35:6
46,36:7
46,37:3
46,40:3
46,41:3
46,44:14
46,45:12
46,48:8
47,5:8
47,9:1
47,12:1
47,14:2
47,16:5
47,19:1
47,21:5
47,22:7
47,24:7
47,28:1
47,29:8
47,32:1
47,34:7
47,44:7
47,45:5
47,48:1
48,5:7
48,14:1
48,16:4
48,21:4
48,22:6
48,24:6
48,29:7
48,34:6
48,44:6
48,45:4
48,54:5
48,56:5
49,3:2
49,4:5
49,5:15
49,6:2
49,7:3
49,8:5
49,9:8
49,11:3
49,12:8
49,13:3
49,14:9
49,15:3
49,16:12
49,17:5
49,19:8
49,20:5
49,21:12
49,22:14
49,24:14
49,25:3
49,27:6
49,28:8
49,29:15
49,30:3
49,32:8
49,33:6
49,34:14
49,35:6
49,36:7
49,37:3
49,40:3
49,41:3
49,44:14
49,45:12
49,47:7
49,48:8
49,51:7
49,52:7
49,53:8
49,54:13
49,55:16
49,56:13
49,57:16
50,3:2
50,4:5
50,5:15
50,6:2
50,7:3
50,8:5
50,9:8
50,11:3
50,12:8
50,13:3
50,14:9
50,15:3
50,16:12
50,17:5
50,19:8
50,20:5
50,21:12
50,22:14
50,24:14
50,25:3
50,27:6
50,28:8
50,29:15
50,30:3
50,32:8
50,33:6
50,34:14
50,35:6
50,36:7
50,37:3
50,40:3
50,41:3
50,44:14
50,45:12
50,47:7
50,48:8
50,51:7
50,52:7
50,53:8
50,54:13
50,55:16
50,56:13
50,57:16
51,5:8
51,9:1
51,12:1
51,14:2
51,16:5
51,19:1
51,21:5
51,22:7
51,24:7
51,28:1
51,29:8
51,32:1
51,34:7
51,44:7
51,45:5
51,48:1
52,5:8
52,9:1
52,12:1
52,14:2
52,16:5
52,19:1
52,21:5
52,22:7
52,24:7
52,28:1
52,29:8
52,32:1
52,34:7
52,44:7
52,45:5
52,48:1
53,5:7
53,14:1
53,16:4
53,21:4
53,22:6
53,24:6
53,29:7
53,34:6
53,44:6
53,45:4
54,5:2
54,22:1
54,24:1
54,29:2
54,34:1
54,44:1
56,5:2
56,22:1
56,24:1
56,29:2
56,34:1
56,44:1
56,55:3

<end>

<optimal SALBP-1 value>
27


<rand seed>
467321153

